p tw 32 1441 2 
1 17 
1 19 
1 21 
1 23 
1 25 
1 27 
1 29 
1 31 
2 18 
2 20 
2 22 
2 24 
2 26 
2 28 
2 30 
2 32 
3 4 
3 17 
3 20 
3 21 
3 24 
3 25 
3 28 
3 29 
3 32 
4 18 
4 19 
4 22 
4 23 
4 26 
4 27 
4 30 
4 31 
5 6 
5 17 
5 19 
5 22 
5 24 
5 25 
5 27 
5 30 
5 32 
6 18 
6 20 
6 21 
6 23 
6 26 
6 28 
6 29 
6 31 
7 8 
7 17 
7 20 
7 22 
7 23 
7 25 
7 28 
7 30 
7 31 
8 18 
8 19 
8 21 
8 24 
8 26 
8 27 
8 29 
8 32 
9 10 
9 17 
9 19 
9 21 
9 23 
9 26 
9 28 
9 30 
9 32 
10 18 
10 20 
10 22 
10 24 
10 25 
10 27 
10 29 
10 31 
11 12 
11 17 
11 20 
11 21 
11 24 
11 26 
11 27 
11 30 
11 31 
12 18 
12 19 
12 22 
12 23 
12 25 
12 28 
12 29 
12 32 
13 14 
13 17 
13 19 
13 22 
13 24 
13 26 
13 28 
13 29 
13 31 
14 18 
14 20 
14 21 
14 23 
14 25 
14 27 
14 30 
14 32 
15 16 
15 17 
15 20 
15 22 
15 23 
15 26 
15 27 
15 29 
15 32 
16 18 
16 19 
16 21 
16 24 
16 25 
16 28 
16 30 
16 31 
17 18 
19 20 
21 22 
23 24 
25 26 
27 28 
29 30 
31 32 
